n= 1
m= 30
1000
659	36	6
434	56	8
409	63	9
294	48	8
663	40	5
527	25	5
759	54	9
601	45	9
324	64	8
540	56	7
275	63	9
525	40	5
456	48	8
799	72	9
748	36	6
650	49	7
500	54	9
235	42	7
704	54	9
457	40	5
760	64	8
779	48	6
221	49	7
772	30	5
725	56	8
594	35	5
255	36	6
592	48	8
548	35	5
465	49	7
